results_rootrelaxation/bin018_090_005.srr.sol
solution status: optimal solution found
objective value:                                   52
_var2828_                           0.301401238025204 	(obj:4)
_var2886_                          0.0455062853045511 	(obj:2)
_var2924_                          0.0225633080489076 	(obj:3)
_var2928_                           0.438905473743475 	(obj:2)
_var2992_                         0.000966494857496985 	(obj:2)
_var3026_                           0.330743080183942 	(obj:1)
_var3044_                         0.00206932466915805 	(obj:2)
_var3053_                           0.296198031558794 	(obj:4)
_var3060_                           0.021927164127156 	(obj:2)
_var3086_                           0.250676272643296 	(obj:4)
_var3136_                           0.394377229741226 	(obj:2)
_var3139_                           0.255196872657262 	(obj:1)
_var3144_                           0.108767613120764 	(obj:4)
_var3228_                           0.522765279951006 	(obj:4)
_var3242_                          0.0507249653819083 	(obj:1)
_var3243_                           0.112193196923463 	(obj:3)
_var3245_                          0.0766555729554916 	(obj:4)
_var3252_                           0.630240924318817 	(obj:2)
_var3284_                          0.0343237281085543 	(obj:4)
_var3295_                           0.257646058439938 	(obj:3)
_var3297_                           0.061985135184973 	(obj:4)
_var3306_                           0.227275872702684 	(obj:3)
_var3310_                           0.302531824769563 	(obj:1)
_var3349_                           0.324401549040729 	(obj:2)
_var3351_                         0.00941161874839108 	(obj:4)
_var3355_                          0.0259103800840003 	(obj:4)
_var3361_                          0.0135494614986528 	(obj:1)
_var3365_                           0.114061148433225 	(obj:3)
_var3369_                          0.0628495705726342 	(obj:5)
_var3370_                          0.0100962355531338 	(obj:3)
_var3376_                          0.0534770748866579 	(obj:3)
_var3385_                           0.344810694974012 	(obj:4)
_var3386_                         0.00871428618766088 	(obj:5)
_var3397_                         0.000526912097079904 	(obj:3)
_var3401_                           0.129769545889597 	(obj:1)
_var3411_                           0.113525315729885 	(obj:3)
_var3414_                           0.372067953781799 	(obj:2)
_var3416_                           0.106061344703627 	(obj:3)
_var3420_                          0.0661205058475021 	(obj:4)
_var3430_                          0.0630675821462783 	(obj:2)
_var3431_                          0.0158321029481942 	(obj:4)
_var3437_                           0.184595968045868 	(obj:4)
_var3454_                         0.00167387306187446 	(obj:5)
_var3457_                           0.344028383773649 	(obj:4)
_var3486_                           0.121578097321886 	(obj:4)
_var3487_                          0.0603778397684397 	(obj:5)
_var3492_                           0.446499479321331 	(obj:4)
_var3496_                           0.208987457017745 	(obj:2)
_var3497_                           0.260384778905019 	(obj:2)
_var3504_                           0.134764753904904 	(obj:5)
_var3510_                         0.00113241323965524 	(obj:4)
_var3515_                          0.0695564445664229 	(obj:2)
_var3523_                          0.0507249653819083 	(obj:2)
_var3524_                          0.0005358327033399 	(obj:4)
_var3527_                          0.0717482010910594 	(obj:3)
_var3529_                           0.294970499853424 	(obj:3)
_var3537_                           0.126412506776717 	(obj:3)
_var3539_                          0.0763805253028743 	(obj:5)
_var3550_                           0.153651595940926 	(obj:3)
_var3553_                         0.00421465698005129 	(obj:3)
_var3555_                           0.225582703027888 	(obj:3)
_var3558_                           0.113525315729885 	(obj:3)
_var3566_                           0.250752510508769 	(obj:2)
_var3570_                           0.043299532842973 	(obj:2)
_var3571_                           0.243319610349038 	(obj:3)
_var3575_                            0.11158258819487 	(obj:3)
_var3576_                           0.209465243877585 	(obj:4)
_var3577_                          0.0689213062233116 	(obj:4)
_var3585_                            0.17529764932045 	(obj:4)
_var3588_                           0.150963838156094 	(obj:3)
_var3590_                           0.069570676257161 	(obj:5)
_var3591_                          0.0689213062233103 	(obj:2)
_var3594_                           0.117512422467854 	(obj:4)
_var3597_                           0.166926256754237 	(obj:2)
_var3605_                           0.109778155735673 	(obj:2)
_var3614_                           0.118625767386382 	(obj:4)
_var3616_                           0.190321737795703 	(obj:3)
_var3620_                           0.245265229526373 	(obj:3)
_var3621_                            0.03901599549724 	(obj:2)
_var3622_                           0.108869646670315 	(obj:3)
_var3630_                           0.284339284229752 	(obj:5)
_var3632_                          0.0432995328429729 	(obj:4)
_var3634_                            0.25756587875772 	(obj:3)
_var3638_                          0.0534770748866576 	(obj:2)
_var3641_                           0.107365305376269 	(obj:5)
_var3643_                           0.144115339053088 	(obj:3)
_var3652_                            0.10115340742258 	(obj:3)
_var3657_                          0.0631283464008043 	(obj:5)
_var3659_                          0.0956168970387699 	(obj:3)
_var3665_                          0.0698023695605048 	(obj:3)
_var3668_                          0.0907546374347776 	(obj:3)
_var3674_                           0.113525315729885 	(obj:5)
_var3675_                          0.0520760132482515 	(obj:5)
_var3676_                            0.22351428299312 	(obj:2)
_var3680_                           0.130918092017259 	(obj:3)
_var3681_                          0.0790175417764434 	(obj:5)
_var3683_                           0.148193223653887 	(obj:1)
_var3692_                           0.275474618796096 	(obj:5)
_var3695_                           0.113995705646002 	(obj:4)
_var3696_                           0.178342039770876 	(obj:3)
_var3698_                             0.0765006954919 	(obj:4)
_var3700_                           0.147974644409693 	(obj:2)
_var3701_                          0.0673243206442353 	(obj:3)
_var3705_                           0.124386399288574 	(obj:4)
_var3706_                          0.0577704782049217 	(obj:2)
_var3707_                         0.00723927443152318 	(obj:4)
_var3709_                          0.0507559836028646 	(obj:5)
_var3713_                           0.188724752216626 	(obj:4)
_var3714_                           0.147522717310179 	(obj:3)
_var3715_                            0.16414752630188 	(obj:4)
_var3719_                          0.0519196826381971 	(obj:2)
_var3720_                          0.0991219693694819 	(obj:2)
_var3723_                          0.0415050903229376 	(obj:3)
_var3726_                          0.0100989455923896 	(obj:4)
_var3727_                          0.0935725722523378 	(obj:3)
_var3729_                         0.00519904859355924 	(obj:4)
_var3732_                          0.0432995328429729 	(obj:3)
_var3734_                           0.082822953688552 	(obj:2)
_var3736_                          0.0586837817198218 	(obj:2)
_var3738_                           0.225281497773052 	(obj:4)
_var3739_                           0.239473129742464 	(obj:3)
_var3740_                          0.0601155750069866 	(obj:3)
_var3742_                          0.0483987274456772 	(obj:5)
_var3744_                          0.0186482668139446 	(obj:3)
_var3748_                           0.027025473897937 	(obj:2)
_var3749_                           0.102019146713756 	(obj:4)
_var3752_                           0.115162911004918 	(obj:2)
